p cnf 83 1452025
1 2 3 4 5 6 7 8 9 0
-1 -2 0
-1 -3 0
-1 -4 0
-1 -5 0
-1 -6 0
-1 -7 0
-1 -8 0
-1 -9 0
-2 -3 0
-2 -4 0
-2 -5 0
-2 -6 0
-2 -7 0
-2 -8 0
-2 -9 0
-3 -4 0
-3 -5 0
-3 -6 0
-3 -7 0
-3 -8 0
-3 -9 0
-4 -5 0
-4 -6 0
-4 -7 0
-4 -8 0
-4 -9 0
-5 -6 0
-5 -7 0
-5 -8 0
-5 -9 0
-6 -7 0
-6 -8 0
-6 -9 0
-7 -8 0
-7 -9 0
-8 -9 0
10 11 12 13 14 15 16 17 18 0
-10 -11 0
-10 -12 0
-10 -13 0
-10 -14 0
-10 -15 0
-10 -16 0
-10 -17 0
-10 -18 0
-11 -12 0
-11 -13 0
-11 -14 0
-11 -15 0
-11 -16 0
-11 -17 0
-11 -18 0
-12 -13 0
-12 -14 0
-12 -15 0
-12 -16 0
-12 -17 0
-12 -18 0
-13 -14 0
-13 -15 0
-13 -16 0
-13 -17 0
-13 -18 0
-14 -15 0
-14 -16 0
-14 -17 0
-14 -18 0
-15 -16 0
-15 -17 0
-15 -18 0
-16 -17 0
-16 -18 0
-17 -18 0
19 20 21 22 23 24 25 26 27 0
-19 -20 0
-19 -21 0
-19 -22 0
-19 -23 0
-19 -24 0
-19 -25 0
-19 -26 0
-19 -27 0
-20 -21 0
-20 -22 0
-20 -23 0
-20 -24 0
-20 -25 0
-20 -26 0
-20 -27 0
-21 -22 0
-21 -23 0
-21 -24 0
-21 -25 0
-21 -26 0
-21 -27 0
-22 -23 0
-22 -24 0
-22 -25 0
-22 -26 0
-22 -27 0
-23 -24 0
-23 -25 0
-23 -26 0
-23 -27 0
-24 -25 0
-24 -26 0
-24 -27 0
-25 -26 0
-25 -27 0
-26 -27 0
28 29 30 31 32 33 34 35 36 0
-28 -29 0
-28 -30 0
-28 -31 0
-28 -32 0
-28 -33 0
-28 -34 0
-28 -35 0
-28 -36 0
-29 -30 0
-29 -31 0
-29 -32 0
-29 -33 0
-29 -34 0
-29 -35 0
-29 -36 0
-30 -31 0
-30 -32 0
-30 -33 0
-30 -34 0
-30 -35 0
-30 -36 0
-31 -32 0
-31 -33 0
-31 -34 0
-31 -35 0
-31 -36 0
-32 -33 0
-32 -34 0
-32 -35 0
-32 -36 0
-33 -34 0
-33 -35 0
-33 -36 0
-34 -35 0
-34 -36 0
-35 -36 0
-1 -10 0
-2 -11 0
-3 -12 0
-4 -13 0
-5 -14 0
-6 -15 0
-7 -16 0
-8 -17 0
-9 -18 0
-19 -28 0
-20 -29 0
-21 -30 0
-22 -31 0
-23 -32 0
-24 -33 0
-25 -34 0
-26 -35 0
-27 -36 0
-1 -19 0
-2 -20 0
-3 -21 0
-4 -22 0
-5 -23 0
-6 -24 0
-7 -25 0
-8 -26 0
-9 -27 0
-10 -28 0
-11 -29 0
-12 -30 0
-13 -31 0
-14 -32 0
-15 -33 0
-16 -34 0
-17 -35 0
-18 -36 0
37 -1 0
37 -10 0
-37 1 10 0
38 -2 0
38 -11 0
-38 2 11 0
39 -3 0
39 -12 0
-39 3 12 0
40 -4 0
40 -13 0
-40 4 13 0
41 -5 0
41 -14 0
-41 5 14 0
42 -6 0
42 -15 0
-42 6 15 0
43 -7 0
43 -16 0
-43 7 16 0
44 -8 0
44 -17 0
-44 8 17 0
45 -9 0
45 -18 0
-45 9 18 0
46 -19 0
46 -28 0
-46 19 28 0
47 -20 0
47 -29 0
-47 20 29 0
48 -21 0
48 -30 0
-48 21 30 0
49 -22 0
49 -31 0
-49 22 31 0
50 -23 0
50 -32 0
-50 23 32 0
51 -24 0
51 -33 0
-51 24 33 0
52 -25 0
52 -34 0
-52 25 34 0
53 -26 0
53 -35 0
-53 26 35 0
54 -27 0
54 -36 0
-54 27 36 0
55 -1 0
55 -19 0
-55 1 19 0
56 -2 0
56 -20 0
-56 2 20 0
57 -3 0
57 -21 0
-57 3 21 0
58 -4 0
58 -22 0
-58 4 22 0
59 -5 0
59 -23 0
-59 5 23 0
60 -6 0
60 -24 0
-60 6 24 0
61 -7 0
61 -25 0
-61 7 25 0
62 -8 0
62 -26 0
-62 8 26 0
63 -9 0
63 -27 0
-63 9 27 0
64 -10 0
64 -28 0
-64 10 28 0
65 -11 0
65 -29 0
-65 11 29 0
66 -12 0
66 -30 0
-66 12 30 0
67 -13 0
67 -31 0
-67 13 31 0
68 -14 0
68 -32 0
-68 14 32 0
69 -15 0
69 -33 0
-69 15 33 0
70 -16 0
70 -34 0
-70 16 34 0
71 -17 0
71 -35 0
-71 17 35 0
72 -18 0
72 -36 0
-72 18 36 0
73 -45 -41 0
-73 45 0
-73 41 0
74 -44 -42 0
-74 44 0
-74 42 0
73 74 0
75 -47 -46 0
-75 47 0
-75 46 0
75 0
76 -62 -55 0
-76 62 0
-76 55 0
77 -61 -56 0
-77 61 0
-77 56 0
78 -60 -57 0
-78 60 0
-78 57 0
79 -59 -58 0
-79 59 0
-79 58 0
76 77 78 79 0
80 -71 -64 0
-80 71 0
-80 64 0
81 -70 -65 0
-81 70 0
-81 65 0
82 -69 -66 0
-82 69 0
-82 66 0
83 -68 -67 0
-83 68 0
-83 67 0
80 81 82 83 0
